(set-info :Origin "This instance was generated by: BanditFuzz-- an RL fuzzer for SMT solvers" )
(set-info :Author "Joe Scott, Fed Mora, Vijay Ganesh" )
(set-info :Contact "Joe Scott, joseph.scott@uwaterloo.ca")
(set-logic QF_BV)
(declare-const bool_0 Bool)
(declare-const bool_1 Bool)
(declare-const bool_2 Bool)
(declare-const bool_3 Bool)
(declare-const bool_4 Bool)
(declare-const bv_0 (_ BitVec 32))
(declare-const bv_1 (_ BitVec 32))
(declare-const bv_2 (_ BitVec 32))
(declare-const bv_3 (_ BitVec 32))
(declare-const bv_4 (_ BitVec 32))
(assert (=> (and (bvsge #x4ff7c2e2  bv_1) (bvslt #x94f579dd  #x912c450d )) (and (xor bool_0 bool_2) (=> false true))))
(assert (bvugt (bvurem (bvxnor bv_2 #xdd0d5db6 ) (bvand bv_4 #xa74815b8 )) (bvudiv (bvashr #x8b6df0bb  #xd752c11e ) (bvmul bv_0 #x532036b9 ))))
(assert (bvult (bvsub (bvsrem #xce5ec278  bv_0) (bvadd bv_3 #x1f3a81b9 )) (bvshl (bvsub #x79e95e14  bv_3) (bvmul #xc1e77f3b  bv_0))))
(assert (bvule (bvudiv (bvnand bv_2 #xdf4db072 ) (bvxor #xcad59596  bv_0)) (bvmul (bvashr bv_4 bv_2) (bvsmod bv_3 bv_2))))
(assert (bvule (bvadd (bvudiv #x1ce1e84e  #x11ad338a ) (bvurem bv_0 #xd55139f4 )) (bvxor (bvxnor #x0135b1d8  #x0fb5f274 ) (bvashr #xb525e67c  #x1352305d ))))
(check-sat)
(exit)
